--- Job swath.gms Start 07/01/20 15:26:31 31.1.0 r55b6ce3 WEX-WEI x86 64bit/MS Windows
--- Applying:
    E:\31.1\gmsprmNT.txt
--- GAMS Parameters defined
    Input C:\Users\hasee\Desktop\Summer research\swath\swath.gms
    PageSize 0
    ScrDir C:\Users\hasee\Desktop\Summer research\swath\225a\
    SysDir E:\31.1\
    LogOption 3
    ErrMsg 1
    ErrorLog 99
    IDE 1
    LstTitleLeftAligned 1
GAMS 31.1.0   Copyright (C) 1987-2020 GAMS Development. All rights reserved
*** License has expired 22 days ago
Licensee: CS526 Advanced Linear Programming              G200210/0001AS-GEN
          Course License UW-Madison, Prof Ferris, Spring 2020        DCE515
          E:\31.1\gamslice.txt
          Evaluation license: Not for commercial or production use
--- Starting compilation
--- swath.gms(35) 3 Mb
--- GDXin=C:\Users\hasee\Desktop\Summer research\swath\swathdat.gdx
--- swath.gms(149) 3 Mb
--- Starting execution: elapsed 0:00:00.017
--- swath.gms(77) 4 Mb
--- Generating MIP model swath
--- swath.gms(80) 7 Mb
---   523 rows  6,661 columns  31,621 non-zeroes
---   6,660 discrete-columns
--- Executing CPLEX: elapsed 0:00:00.069

IBM ILOG CPLEX   31.1.0 r55b6ce3 Released May 01, 2020 WEI x86 64bit/MS Window
--- GAMS/Cplex licensed for continuous and discrete problems.
Cplex 12.10.0.0

Reading data...
Starting Cplex...
Space for names approximately 0.16 Mb
Use option 'names no' to turn use of names off
Version identifier: 12.10.0.0 | 2019-11-26 | 843d4de2ae
CPXPARAM_Advance                                 0
CPXPARAM_Threads                                 1
CPXPARAM_Parallel                                1
CPXPARAM_MIP_Display                             4
CPXPARAM_Simplex_Limits_Iterations               2000000000
CPXPARAM_TimeLimit                               1000
CPXPARAM_Tune_TimeLimit                          200
CPXPARAM_MIP_Tolerances_AbsMIPGap                0
CPXPARAM_MIP_Tolerances_MIPGap                   0
CPXPARAM_WorkDir                                 "C:\Users\hasee\Desktop\Summer research\swath\225a\"
Tried aggregator 1 time.
MIP Presolve eliminated 1 rows and 1 columns.
MIP Presolve modified 80 coefficients.
Reduced MIP has 522 rows, 6660 columns, and 25300 nonzeros.
Reduced MIP has 6660 binaries, 0 generals, 0 SOSs, and 0 indicators.
Presolve time = 0.02 sec. (15.32 ticks)
Found incumbent of value 1587.906183 after 0.09 sec. (60.70 ticks)
Tried aggregator 1 time.
Detecting symmetries...
Reduced MIP has 522 rows, 6660 columns, and 25300 nonzeros.
Reduced MIP has 6660 binaries, 0 generals, 0 SOSs, and 0 indicators.
Presolve time = 0.02 sec. (13.46 ticks)
Dual steepest-edge pricing selected.
Probing time = 0.02 sec. (5.18 ticks)
Clique table members: 13354.
MIP emphasis: balance optimality and feasibility.
MIP search method: dynamic search.
Parallel mode: none, using 1 thread.
Tried aggregator 1 time.
LP Presolve eliminated 0 rows and 420 columns.
Reduced LP has 522 rows, 6240 columns, and 24880 nonzeros.
Presolve time = 0.00 sec. (3.13 ticks)

Iteration log . . .
Iteration:     1   Dual objective     =            11.810374
Initializing dual steep norms . . .
Root relaxation solution time = 0.00 sec. (5.56 ticks)

        Nodes                                         Cuts/
   Node  Left     Objective  IInf  Best Integer    Best Bound    ItCnt     Gap

*     0+    0                         1587.9062        0.0000           100.00%
Found incumbent of value 1587.906183 after 0.14 sec. (92.60 ticks)
*     0     0      integral     0      330.1206      330.1206       37    0.00%
Elapsed time = 0.14 sec. (93.09 ticks, tree = 0.00 MB, solutions = 2)
Found incumbent of value 330.120643 after 0.14 sec. (93.09 ticks)

Root node processing (before b&c):
  Real time             =    0.16 sec. (93.33 ticks)
Sequential b&c:
  Real time             =    0.00 sec. (0.00 ticks)
                          ------------
Total (root+branch&cut) =    0.16 sec. (93.33 ticks)
MIP status(101): integer optimal solution
Cplex Time: 0.16sec (det. 93.35 ticks)
Fixing integer variables, and solving final LP...
Version identifier: 12.10.0.0 | 2019-11-26 | 843d4de2ae
CPXPARAM_Advance                                 2
CPXPARAM_Threads                                 1
CPXPARAM_Parallel                                1
CPXPARAM_MIP_Display                             4
CPXPARAM_Simplex_Limits_Iterations               2000000000
CPXPARAM_TimeLimit                               1000
CPXPARAM_Tune_TimeLimit                          200
CPXPARAM_MIP_Tolerances_AbsMIPGap                0
CPXPARAM_MIP_Tolerances_MIPGap                   0
CPXPARAM_WorkDir                                 "C:\Users\hasee\Desktop\Summer research\swath\225a\"
Tried aggregator 1 time.
LP Presolve eliminated 523 rows and 6661 columns.
All rows and columns eliminated.
Presolve time = 0.00 sec. (2.30 ticks)
Fixed MIP status(1): optimal
Cplex Time: 0.00sec (det. 3.03 ticks)

Proven optimal solution.

MIP Solution:          330.120643    (37 iterations, 0 nodes)
Final Solve:           330.120643    (0 iterations)

Best possible:         330.120643
Absolute gap:            0.000000
Relative gap:            0.000000

--- Restarting execution
--- swath.gms(80) 3 Mb
--- Reading solution for model swath
--- swath.gms(80) 3 Mb
--- Executing after solve: elapsed 0:00:00.363
--- swath.gms(94) 4 Mb
--- Generating MIP model swath
--- swath.gms(136) 6 Mb
--- LOOPS FOR/WHILE = 1
---   533 rows  6,682 columns  31,666 non-zeroes
---   6,681 discrete-columns
--- Executing CPLEX: elapsed 0:00:00.418

IBM ILOG CPLEX   31.1.0 r55b6ce3 Released May 01, 2020 WEI x86 64bit/MS Window
--- GAMS/Cplex licensed for continuous and discrete problems.
Cplex 12.10.0.0

Reading data...
Starting Cplex...
Space for names approximately 0.16 Mb
Use option 'names no' to turn use of names off
Version identifier: 12.10.0.0 | 2019-11-26 | 843d4de2ae
CPXPARAM_Advance                                 0
CPXPARAM_Threads                                 1
CPXPARAM_Parallel                                1
CPXPARAM_MIP_Display                             4
CPXPARAM_Simplex_Limits_Iterations               2000000000
CPXPARAM_TimeLimit                               1000
CPXPARAM_Tune_TimeLimit                          200
CPXPARAM_MIP_Tolerances_AbsMIPGap                0
CPXPARAM_MIP_Tolerances_MIPGap                   0
CPXPARAM_WorkDir                                 "C:\Users\hasee\Desktop\Summer research\swath\225a\"
Tried aggregator 2 times.
MIP Presolve eliminated 1 rows and 22 columns.
MIP Presolve modified 80 coefficients.
Aggregator did 18 substitutions.
Reduced MIP has 514 rows, 6642 columns, and 25288 nonzeros.
Reduced MIP has 6642 binaries, 0 generals, 0 SOSs, and 0 indicators.
Presolve time = 0.02 sec. (21.54 ticks)
Tried aggregator 1 time.
Detecting symmetries...
Reduced MIP has 514 rows, 6642 columns, and 25288 nonzeros.
Reduced MIP has 6642 binaries, 0 generals, 0 SOSs, and 0 indicators.
Presolve time = 0.03 sec. (13.78 ticks)
Dual steepest-edge pricing selected.
Probing time = 0.02 sec. (5.16 ticks)
Clique table members: 13302.
MIP emphasis: balance optimality and feasibility.
MIP search method: dynamic search.
Parallel mode: none, using 1 thread.
Tried aggregator 1 time.
LP Presolve eliminated 0 rows and 396 columns.
Reduced LP has 514 rows, 6246 columns, and 24892 nonzeros.
Presolve time = 0.00 sec. (3.12 ticks)

Iteration log . . .
Iteration:     1   Dual objective     =            11.810374
Iteration:    99   Dual objective     =           369.990641
Initializing dual steep norms . . .
Root relaxation solution time = 0.02 sec. (8.53 ticks)

        Nodes                                         Cuts/
   Node  Left     Objective  IInf  Best Integer    Best Bound    ItCnt     Gap

      0     0      373.8828    69                    373.8828      115         
      0     0      376.5095    69                    Cuts: 18      158         
      0     0      380.6862    69                    Cuts: 22      238         
      0     0      380.8644    69                     Cuts: 8      243         
*     0     0      integral     0      380.8644       Cuts: 4      244   -0.00%
Found incumbent of value 380.864390 after 0.77 sec. (420.59 ticks)
      0     0        cutoff            380.8644      380.8644      244   -0.00%
Elapsed time = 0.77 sec. (420.59 ticks, tree = 0.01 MB, solutions = 1)

Cover cuts applied:  5
Zero-half cuts applied:  27
Gomory fractional cuts applied:  12

Root node processing (before b&c):
  Real time             =    0.78 sec. (420.78 ticks)
Sequential b&c:
  Real time             =    0.00 sec. (0.00 ticks)
                          ------------
Total (root+branch&cut) =    0.78 sec. (420.78 ticks)
MIP status(101): integer optimal solution
Cplex Time: 0.78sec (det. 420.80 ticks)
Fixing integer variables, and solving final LP...
Version identifier: 12.10.0.0 | 2019-11-26 | 843d4de2ae
CPXPARAM_Advance                                 2
CPXPARAM_Threads                                 1
CPXPARAM_Parallel                                1
CPXPARAM_MIP_Display                             4
CPXPARAM_Simplex_Limits_Iterations               2000000000
CPXPARAM_TimeLimit                               1000
CPXPARAM_Tune_TimeLimit                          200
CPXPARAM_MIP_Tolerances_AbsMIPGap                0
CPXPARAM_MIP_Tolerances_MIPGap                   0
CPXPARAM_WorkDir                                 "C:\Users\hasee\Desktop\Summer research\swath\225a\"
Tried aggregator 1 time.
LP Presolve eliminated 533 rows and 6682 columns.
All rows and columns eliminated.
Presolve time = 0.00 sec. (2.31 ticks)
Fixed MIP status(1): optimal
Cplex Time: 0.00sec (det. 3.04 ticks)

Proven optimal solution.

MIP Solution:          380.864390    (244 iterations, 0 nodes)
Final Solve:           380.864390    (0 iterations)

Best possible:         380.864390
Absolute gap:            0.000000
Relative gap:            0.000000

--- Restarting execution
--- swath.gms(136) 3 Mb
--- Reading solution for model swath
--- Executing after solve: elapsed 0:00:01.343
--- swath.gms(94) 4 Mb
--- Generating MIP model swath
--- swath.gms(136) 6 Mb
--- LOOPS FOR/WHILE = 2
---   538 rows  6,682 columns  31,755 non-zeroes
---   6,681 discrete-columns
--- Executing CPLEX: elapsed 0:00:01.431

IBM ILOG CPLEX   31.1.0 r55b6ce3 Released May 01, 2020 WEI x86 64bit/MS Window
--- GAMS/Cplex licensed for continuous and discrete problems.
Cplex 12.10.0.0

Reading data...
Starting Cplex...
Space for names approximately 0.16 Mb
Use option 'names no' to turn use of names off
Version identifier: 12.10.0.0 | 2019-11-26 | 843d4de2ae
CPXPARAM_Advance                                 0
CPXPARAM_Threads                                 1
CPXPARAM_Parallel                                1
CPXPARAM_MIP_Display                             4
CPXPARAM_Simplex_Limits_Iterations               2000000000
CPXPARAM_TimeLimit                               1000
CPXPARAM_Tune_TimeLimit                          200
CPXPARAM_MIP_Tolerances_AbsMIPGap                0
CPXPARAM_MIP_Tolerances_MIPGap                   0
CPXPARAM_WorkDir                                 "C:\Users\hasee\Desktop\Summer research\swath\225a\"
Tried aggregator 1 time.
MIP Presolve eliminated 1 rows and 22 columns.
MIP Presolve modified 80 coefficients.
Reduced MIP has 537 rows, 6660 columns, and 25392 nonzeros.
Reduced MIP has 6660 binaries, 0 generals, 0 SOSs, and 0 indicators.
Presolve time = 0.03 sec. (15.39 ticks)
Found incumbent of value 1396.395569 after 0.13 sec. (64.35 ticks)
Tried aggregator 1 time.
Detecting symmetries...
Reduced MIP has 537 rows, 6660 columns, and 25392 nonzeros.
Reduced MIP has 6660 binaries, 0 generals, 0 SOSs, and 0 indicators.
Presolve time = 0.01 sec. (13.50 ticks)
Dual steepest-edge pricing selected.
Probing time = 0.00 sec. (5.19 ticks)
Clique table members: 13363.
MIP emphasis: balance optimality and feasibility.
MIP search method: dynamic search.
Parallel mode: none, using 1 thread.
Tried aggregator 1 time.
LP Presolve eliminated 0 rows and 352 columns.
Reduced LP has 537 rows, 6308 columns, and 25040 nonzeros.
Presolve time = 0.00 sec. (3.13 ticks)

Iteration log . . .
Iteration:     1   Dual objective     =            11.810374
Iteration:   113   Dual objective     =           363.837107
Iteration:   203   Dual objective     =           403.542697
Initializing dual steep norms . . .
Root relaxation solution time = 0.02 sec. (14.98 ticks)

        Nodes                                         Cuts/
   Node  Left     Objective  IInf  Best Integer    Best Bound    ItCnt     Gap

*     0+    0                         1396.3956        0.0000           100.00%
Found incumbent of value 1396.395569 after 0.19 sec. (105.74 ticks)
      0     0      410.1685    48     1396.3956      410.1685      233   70.63%
      0     0      411.3648    48     1396.3956      Cuts: 10      263   70.54%
      0     0      411.5378    48     1396.3956       Cuts: 5      271   70.53%
      0     0      411.5578    48     1396.3956       Cuts: 2      284   70.53%
      0     0      411.7725    48     1396.3956       Cuts: 9      304   70.51%
      0     0      411.7905    48     1396.3956       Cuts: 9      311   70.51%
*     0+    0                          424.8469      411.7905             3.07%
Found incumbent of value 424.846936 after 0.80 sec. (511.68 ticks)
Detecting symmetries...
*     0+    0                          412.1516      411.7905             0.09%
Found incumbent of value 412.151589 after 0.81 sec. (523.11 ticks)
Detecting symmetries...

Repeating presolve.
Tried aggregator 3 times.
MIP Presolve eliminated 386 rows and 6475 columns.
MIP Presolve modified 17 coefficients.
Aggregator did 70 substitutions.
Reduced MIP has 81 rows, 115 columns, and 414 nonzeros.
Reduced MIP has 115 binaries, 0 generals, 0 SOSs, and 0 indicators.
Presolve time = 0.00 sec. (5.76 ticks)
Probing fixed 27 vars, tightened 0 bounds.
Probing time = 0.00 sec. (0.35 ticks)
Tried aggregator 1 time.
MIP Presolve eliminated 28 rows and 39 columns.
Reduced MIP has 53 rows, 76 columns, and 288 nonzeros.
Reduced MIP has 76 binaries, 0 generals, 0 SOSs, and 0 indicators.
Presolve time = 0.02 sec. (0.18 ticks)
Probing fixed 2 vars, tightened 0 bounds.
Probing time = 0.00 sec. (0.28 ticks)
Tried aggregator 2 times.
MIP Presolve eliminated 1 rows and 3 columns.
Aggregator did 1 substitutions.
Reduced MIP has 51 rows, 72 columns, and 274 nonzeros.
Reduced MIP has 72 binaries, 0 generals, 0 SOSs, and 0 indicators.
Presolve time = 0.00 sec. (0.24 ticks)
Probing time = 0.00 sec. (0.25 ticks)
Tried aggregator 1 time.
Detecting symmetries...
Reduced MIP has 51 rows, 72 columns, and 274 nonzeros.
Reduced MIP has 72 binaries, 0 generals, 0 SOSs, and 0 indicators.
Presolve time = 0.00 sec. (0.17 ticks)
Represolve time = 0.03 sec. (14.55 ticks)
Probing time = 0.00 sec. (0.25 ticks)
Clique table members: 240.
MIP emphasis: balance optimality and feasibility.
MIP search method: dynamic search.
Parallel mode: none, using 1 thread.
Tried aggregator 1 time.
LP Presolve eliminated 0 rows and 5 columns.
Reduced LP has 66 rows, 67 columns, and 468 nonzeros.
Presolve time = 0.00 sec. (0.06 ticks)

Iteration log . . .
Iteration:     1   Dual objective     =           273.245707
Iteration:    62   Dual objective     =           409.956000
Initializing dual steep norms . . .
Root relaxation solution time = 0.00 sec. (0.65 ticks)

        Nodes                                         Cuts/
   Node  Left     Objective  IInf  Best Integer    Best Bound    ItCnt     Gap

*     0+    0                          412.1516      411.7905             0.09%
Found incumbent of value 412.151589 after 0.88 sec. (648.03 ticks)
      0     0      411.9354    40      412.1516      411.9354      381    0.05%
*     0+    0                          412.0409      411.9354             0.03%
Found incumbent of value 412.040929 after 0.88 sec. (648.27 ticks)
      0     0        cutoff            412.0409                    382    0.00%
Elapsed time = 0.88 sec. (648.41 ticks, tree = 0.01 MB, solutions = 4)

Zero-half cuts applied:  12
Gomory fractional cuts applied:  3

Root node processing (before b&c):
  Real time             =    0.89 sec. (648.72 ticks)
Sequential b&c:
  Real time             =    0.00 sec. (0.00 ticks)
                          ------------
Total (root+branch&cut) =    0.89 sec. (648.72 ticks)
MIP status(101): integer optimal solution
Cplex Time: 0.89sec (det. 648.74 ticks)
Fixing integer variables, and solving final LP...
Version identifier: 12.10.0.0 | 2019-11-26 | 843d4de2ae
CPXPARAM_Advance                                 2
CPXPARAM_Threads                                 1
CPXPARAM_Parallel                                1
CPXPARAM_MIP_Display                             4
CPXPARAM_Simplex_Limits_Iterations               2000000000
CPXPARAM_TimeLimit                               1000
CPXPARAM_Tune_TimeLimit                          200
CPXPARAM_MIP_Tolerances_AbsMIPGap                0
CPXPARAM_MIP_Tolerances_MIPGap                   0
CPXPARAM_WorkDir                                 "C:\Users\hasee\Desktop\Summer research\swath\225a\"
Tried aggregator 1 time.
LP Presolve eliminated 538 rows and 6682 columns.
All rows and columns eliminated.
Presolve time = 0.00 sec. (2.31 ticks)
Fixed MIP status(1): optimal
Cplex Time: 0.00sec (det. 3.05 ticks)

Proven optimal solution.

MIP Solution:          412.040929    (382 iterations, 0 nodes)
Final Solve:           412.040929    (0 iterations)

Best possible:         412.040929
Absolute gap:            0.000000
Relative gap:            0.000000

--- Restarting execution
--- swath.gms(136) 3 Mb
--- Reading solution for model swath
--- Executing after solve: elapsed 0:00:02.452
--- swath.gms(94) 4 Mb
--- Generating MIP model swath
--- swath.gms(136) 6 Mb
--- LOOPS FOR/WHILE = 3
---   542 rows  6,682 columns  31,884 non-zeroes
---   6,681 discrete-columns
--- Executing CPLEX: elapsed 0:00:02.505

IBM ILOG CPLEX   31.1.0 r55b6ce3 Released May 01, 2020 WEI x86 64bit/MS Window
--- GAMS/Cplex licensed for continuous and discrete problems.
Cplex 12.10.0.0

Reading data...
Starting Cplex...
Space for names approximately 0.16 Mb
Use option 'names no' to turn use of names off
Version identifier: 12.10.0.0 | 2019-11-26 | 843d4de2ae
CPXPARAM_Advance                                 0
CPXPARAM_Threads                                 1
CPXPARAM_Parallel                                1
CPXPARAM_MIP_Display                             4
CPXPARAM_Simplex_Limits_Iterations               2000000000
CPXPARAM_TimeLimit                               1000
CPXPARAM_Tune_TimeLimit                          200
CPXPARAM_MIP_Tolerances_AbsMIPGap                0
CPXPARAM_MIP_Tolerances_MIPGap                   0
CPXPARAM_WorkDir                                 "C:\Users\hasee\Desktop\Summer research\swath\225a\"
Tried aggregator 1 time.
MIP Presolve eliminated 1 rows and 22 columns.
MIP Presolve modified 80 coefficients.
Reduced MIP has 541 rows, 6660 columns, and 25500 nonzeros.
Reduced MIP has 6660 binaries, 0 generals, 0 SOSs, and 0 indicators.
Presolve time = 0.03 sec. (15.45 ticks)
Found incumbent of value 1334.899413 after 0.13 sec. (66.98 ticks)
Tried aggregator 1 time.
Detecting symmetries...
Reduced MIP has 541 rows, 6660 columns, and 25500 nonzeros.
Reduced MIP has 6660 binaries, 0 generals, 0 SOSs, and 0 indicators.
Presolve time = 0.02 sec. (13.56 ticks)
Dual steepest-edge pricing selected.
Probing time = 0.00 sec. (5.20 ticks)
Clique table members: 13633.
MIP emphasis: balance optimality and feasibility.
MIP search method: dynamic search.
Parallel mode: none, using 1 thread.
Tried aggregator 1 time.
LP Presolve eliminated 0 rows and 296 columns.
Reduced LP has 541 rows, 6364 columns, and 25204 nonzeros.
Presolve time = 0.00 sec. (3.14 ticks)

Iteration log . . .
Iteration:     1   Dual objective     =            11.810374
Iteration:   116   Dual objective     =           364.928828
Iteration:   199   Dual objective     =           398.022695
Iteration:   270   Dual objective     =           442.780770
Initializing dual steep norms . . .
Root relaxation solution time = 0.02 sec. (22.87 ticks)

        Nodes                                         Cuts/
   Node  Left     Objective  IInf  Best Integer    Best Bound    ItCnt     Gap

*     0+    0                         1334.8994        0.0000           100.00%
Found incumbent of value 1334.899413 after 0.19 sec. (116.37 ticks)
      0     0      450.5050    71     1334.8994      450.5050      319   66.25%
      0     0      451.8430    71     1334.8994      Cuts: 13      396   66.15%
      0     0      452.6074    71     1334.8994      Cuts: 11      464   66.09%
      0     0      453.0118    71     1334.8994   ZeroHalf: 6      509   66.06%
      0     0      453.1644    71     1334.8994       Cuts: 7      526   66.05%
      0     0      453.3385    71     1334.8994       Cuts: 5      537   66.04%
Detecting symmetries...
      0     0      453.4956    71     1334.8994       Cuts: 5      564   66.03%
      0     0      453.6221    71     1334.8994     Covers: 4      587   66.02%
*     0+    0                          453.8760      453.6221             0.06%
Found incumbent of value 453.875998 after 1.22 sec. (748.35 ticks)
Detecting symmetries...

Repeating presolve.
Tried aggregator 3 times.
MIP Presolve eliminated 337 rows and 6408 columns.
MIP Presolve modified 6 coefficients.
Aggregator did 70 substitutions.
Reduced MIP has 134 rows, 182 columns, and 688 nonzeros.
Reduced MIP has 182 binaries, 0 generals, 0 SOSs, and 0 indicators.
Presolve time = 0.02 sec. (5.52 ticks)
Probing fixed 61 vars, tightened 0 bounds.
Probing changed sense of 2 constraints.
Probing time = 0.00 sec. (0.50 ticks)
Tried aggregator 3 times.
MIP Presolve eliminated 56 rows and 83 columns.
MIP Presolve modified 6 coefficients.
Aggregator did 8 substitutions.
Reduced MIP has 70 rows, 91 columns, and 338 nonzeros.
Reduced MIP has 91 binaries, 0 generals, 0 SOSs, and 0 indicators.
Presolve time = 0.02 sec. (0.73 ticks)
Probing fixed 13 vars, tightened 0 bounds.
Probing time = 0.00 sec. (0.26 ticks)
Tried aggregator 2 times.
MIP Presolve eliminated 31 rows and 40 columns.
Aggregator did 1 substitutions.
Reduced MIP has 38 rows, 50 columns, and 190 nonzeros.
Reduced MIP has 50 binaries, 0 generals, 0 SOSs, and 0 indicators.
Presolve time = 0.00 sec. (0.21 ticks)
Probing time = 0.00 sec. (0.13 ticks)
Tried aggregator 2 times.
Detecting symmetries...
MIP Presolve eliminated 0 rows and 1 columns.
Aggregator did 1 substitutions.
Reduced MIP has 37 rows, 48 columns, and 187 nonzeros.
Reduced MIP has 48 binaries, 0 generals, 0 SOSs, and 0 indicators.
Presolve time = 0.00 sec. (0.19 ticks)
Represolve time = 0.05 sec. (14.08 ticks)
Probing time = 0.00 sec. (0.14 ticks)
Clique table members: 165.
MIP emphasis: balance optimality and feasibility.
MIP search method: dynamic search.
Parallel mode: none, using 1 thread.
Tried aggregator 1 time.
No LP presolve or aggregator reductions.
Presolve time = 0.00 sec. (0.03 ticks)
Initializing dual steep norms . . .

Iteration log . . .
Iteration:     1   Dual objective     =           328.765437
Iteration:    23   Dual objective     =           453.875998
Root relaxation solution time = 0.00 sec. (0.13 ticks)

        Nodes                                         Cuts/
   Node  Left     Objective  IInf  Best Integer    Best Bound    ItCnt     Gap

*     0+    0                          453.8760      453.6221             0.06%
Found incumbent of value 453.875998 after 1.31 sec. (806.54 ticks)
      0     0        cutoff            453.8760      453.8760      610    0.00%
      0     0        cutoff            453.8760      453.8760      610    0.00%
Elapsed time = 1.31 sec. (806.55 ticks, tree = 0.01 MB, solutions = 2)

Cover cuts applied:  2
Zero-half cuts applied:  8
Gomory fractional cuts applied:  3

Root node processing (before b&c):
  Real time             =    1.31 sec. (806.77 ticks)
Sequential b&c:
  Real time             =    0.00 sec. (0.00 ticks)
                          ------------
Total (root+branch&cut) =    1.31 sec. (806.77 ticks)
MIP status(101): integer optimal solution
Cplex Time: 1.31sec (det. 806.79 ticks)
Fixing integer variables, and solving final LP...
Version identifier: 12.10.0.0 | 2019-11-26 | 843d4de2ae
CPXPARAM_Advance                                 2
CPXPARAM_Threads                                 1
CPXPARAM_Parallel                                1
CPXPARAM_MIP_Display                             4
CPXPARAM_Simplex_Limits_Iterations               2000000000
CPXPARAM_TimeLimit                               1000
CPXPARAM_Tune_TimeLimit                          200
CPXPARAM_MIP_Tolerances_AbsMIPGap                0
CPXPARAM_MIP_Tolerances_MIPGap                   0
CPXPARAM_WorkDir                                 "C:\Users\hasee\Desktop\Summer research\swath\225a\"
Tried aggregator 1 time.
LP Presolve eliminated 542 rows and 6682 columns.
All rows and columns eliminated.
Presolve time = 0.00 sec. (2.32 ticks)
Fixed MIP status(1): optimal
Cplex Time: 0.00sec (det. 3.05 ticks)

Proven optimal solution.

MIP Solution:          453.875998    (610 iterations, 0 nodes)
Final Solve:           453.875998    (0 iterations)

Best possible:         453.875998
Absolute gap:            0.000000
Relative gap:            0.000000

--- Restarting execution
--- swath.gms(136) 3 Mb
--- Reading solution for model swath
--- Executing after solve: elapsed 0:00:03.956
--- swath.gms(94) 4 Mb
--- Generating MIP model swath
--- swath.gms(136) 6 Mb
--- LOOPS FOR/WHILE = 4
---   545 rows  6,682 columns  32,037 non-zeroes
---   6,681 discrete-columns
--- Executing CPLEX: elapsed 0:00:04.006

IBM ILOG CPLEX   31.1.0 r55b6ce3 Released May 01, 2020 WEI x86 64bit/MS Window
--- GAMS/Cplex licensed for continuous and discrete problems.
Cplex 12.10.0.0

Reading data...
Starting Cplex...
Space for names approximately 0.16 Mb
Use option 'names no' to turn use of names off
Version identifier: 12.10.0.0 | 2019-11-26 | 843d4de2ae
CPXPARAM_Advance                                 0
CPXPARAM_Threads                                 1
CPXPARAM_Parallel                                1
CPXPARAM_MIP_Display                             4
CPXPARAM_Simplex_Limits_Iterations               2000000000
CPXPARAM_TimeLimit                               1000
CPXPARAM_Tune_TimeLimit                          200
CPXPARAM_MIP_Tolerances_AbsMIPGap                0
CPXPARAM_MIP_Tolerances_MIPGap                   0
CPXPARAM_WorkDir                                 "C:\Users\hasee\Desktop\Summer research\swath\225a\"
Tried aggregator 1 time.
MIP Presolve eliminated 1 rows and 22 columns.
MIP Presolve modified 80 coefficients.
Reduced MIP has 544 rows, 6660 columns, and 25632 nonzeros.
Reduced MIP has 6660 binaries, 0 generals, 0 SOSs, and 0 indicators.
Presolve time = 0.02 sec. (15.51 ticks)
Found incumbent of value 1713.388496 after 0.13 sec. (75.88 ticks)
Tried aggregator 1 time.
Detecting symmetries...
Reduced MIP has 544 rows, 6660 columns, and 25632 nonzeros.
Reduced MIP has 6660 binaries, 0 generals, 0 SOSs, and 0 indicators.
Presolve time = 0.02 sec. (13.62 ticks)
Dual steepest-edge pricing selected.
Probing time = 0.00 sec. (5.22 ticks)
Clique table members: 13633.
MIP emphasis: balance optimality and feasibility.
MIP search method: dynamic search.
Parallel mode: none, using 1 thread.
Tried aggregator 1 time.
LP Presolve eliminated 0 rows and 248 columns.
Reduced LP has 544 rows, 6412 columns, and 25384 nonzeros.
Presolve time = 0.00 sec. (3.14 ticks)

Iteration log . . .
Iteration:     1   Dual objective     =            11.810374
Iteration:   114   Dual objective     =           364.817444
Iteration:   195   Dual objective     =           392.384282
Iteration:   266   Dual objective     =           415.656451
Iteration:   340   Dual objective     =           443.641427
Iteration:   414   Dual objective     =           456.510027
Initializing dual steep norms . . .
Root relaxation solution time = 0.03 sec. (37.06 ticks)

        Nodes                                         Cuts/
   Node  Left     Objective  IInf  Best Integer    Best Bound    ItCnt     Gap

*     0+    0                         1713.3885        0.0000           100.00%
Found incumbent of value 1713.388496 after 0.20 sec. (139.57 ticks)
      0     0      461.7959    55     1713.3885      461.7959      466   73.05%
      0     0      466.6951    55     1713.3885      Cuts: 14      508   72.76%
*     0     0      integral     0      467.4075       Cuts: 7      576    0.00%
Found incumbent of value 467.407491 after 0.56 sec. (350.18 ticks)
      0     0        cutoff            467.4075      467.4075      576    0.00%
Elapsed time = 0.56 sec. (350.18 ticks, tree = 0.01 MB, solutions = 2)

Cover cuts applied:  1
Zero-half cuts applied:  8
Gomory fractional cuts applied:  9

Root node processing (before b&c):
  Real time             =    0.56 sec. (350.44 ticks)
Sequential b&c:
  Real time             =    0.00 sec. (0.00 ticks)
                          ------------
Total (root+branch&cut) =    0.56 sec. (350.44 ticks)
MIP status(101): integer optimal solution
Cplex Time: 0.56sec (det. 350.45 ticks)
Fixing integer variables, and solving final LP...
Version identifier: 12.10.0.0 | 2019-11-26 | 843d4de2ae
CPXPARAM_Advance                                 2
CPXPARAM_Threads                                 1
CPXPARAM_Parallel                                1
CPXPARAM_MIP_Display                             4
CPXPARAM_Simplex_Limits_Iterations               2000000000
CPXPARAM_TimeLimit                               1000
CPXPARAM_Tune_TimeLimit                          200
CPXPARAM_MIP_Tolerances_AbsMIPGap                0
CPXPARAM_MIP_Tolerances_MIPGap                   0
CPXPARAM_WorkDir                                 "C:\Users\hasee\Desktop\Summer research\swath\225a\"
Tried aggregator 1 time.
LP Presolve eliminated 545 rows and 6682 columns.
All rows and columns eliminated.
Presolve time = 0.02 sec. (2.32 ticks)
Fixed MIP status(1): optimal
Cplex Time: 0.02sec (det. 3.06 ticks)

Proven optimal solution.

MIP Solution:          467.407491    (576 iterations, 0 nodes)
Final Solve:           467.407491    (0 iterations)

Best possible:         467.407491
Absolute gap:            0.000000
Relative gap:            0.000000

--- Restarting execution
--- swath.gms(136) 3 Mb
--- Reading solution for model swath
--- Executing after solve: elapsed 0:00:04.720
--- swath.gms(94) 4 Mb
*** Status: Normal completion
--- Job swath.gms Stop 07/01/20 15:26:36 elapsed 0:00:04.734
